WARNING: for repeatability, setting FPU to use double precision
============================[ Problem Statistics ]=============================
|                                                                             |
|  Number of variables:           100                                         |
|  Number of clauses:             449                                         |
|  Parse time:                   0.00 s                                       |
|  Eliminated clauses:           0.00 Mb                                      |
|  Simplification time:          0.00 s                                       |
|                                                                             |
============================[ Search Statistics ]==============================
| Conflicts |          ORIGINAL         |          LEARNT          | Progress |
|           |    Vars  Clauses Literals |    Limit  Clauses Lit/Cl |          |
===============================================================================
|       100 |      99      447     1347 |      163      100      7 |  0.010 % |
|       250 |      99      447     1347 |      180      168      6 |  0.011 % |
===============================================================================
restarts              : 4
conflicts             : 404            (96766 /sec)
decisions             : 497            (0.00 % random) (119042 /sec)
propagations          : 9272           (2220838 /sec)
conflict literals     : 2374           (21.81 % deleted)
Memory used           : 13.00 MB
CPU time              : 0.004175 s

SATISFIABLE
